10J3M/DAT/10J3MNLX-4.dat
10 3
25.6678 5.0663
34.7254 5.8928
21.2789 4.6129
28.4863 5.3373
29.421 5.4241
32.8319 5.7299
25.6325 5.0629
19.4022 4.4048
19.1648 4.3778
24.3084 4.9304
16.9464