10J3M/SOL/10J3MNLX-4.sol
solution status: optimal solution found
objective value:                     86.9730666666667
x#1#1                                               1 	(obj:0)
x#2#3                                               1 	(obj:0)
x#3#2                                               1 	(obj:0)
x#4#1                                               1 	(obj:0)
x#5#2                                               1 	(obj:0)
x#6#2                               0.516389342489287 	(obj:0)
x#6#3                               0.483610657510713 	(obj:0)
x#7#1                                               1 	(obj:0)
x#8#2                              0.0683707480446845 	(obj:0)
x#8#3                               0.931629251955316 	(obj:0)
x#9#1                               0.045429493234823 	(obj:0)
x#9#3                               0.954570506765176 	(obj:0)
x#10#1                              0.259820453617676 	(obj:0)
x#10#2                              0.740179546382324 	(obj:0)
z                                    86.9730666666667 	(obj:1)
